21779
1 1 1 1 1 1 0 1 1 1 1 0 1 1 0 0 0 0 0 1 0 1 1 0 0 0 0 1 1 0 
7 19 21 27 2 12 21 27 22 28 4 28 13 1 28 7 1 10 22 0 27 21 5 0 10 27 27 19 4 2 19 19 4 21 27 12 8 8 27 21 7 9 12 4 8 19 13 21 19 10 0 22 2 21 8 12 7 9 22 7 4 0 7 8 13 12 5 19 28 12 7 12 19 9 5 13 10 5 8 22 10 0 9 7 4 13 19 5 27 7 28 19 7 7 2 3 28 12 0 28 28 21 12 7 4 0 4 27 22 3 19 4 27 12 12 8 28 7 0 8 9 12 28 19 9 21 2 12 19 0 28 21 12 10 1 9 3 3 28 10 12 22 12 12 7 5 27 21 27 7 27 0 10 0 8 28 2 21 3 13 13 27 10 2 5 27 5 4 3 21 1 8 19 10 4 2 0 10 4 10 5 21 2 19 12 8 28 10 0 21 2 21 19 4 7 19 7 21 10 19 

Total Run Time: 358082 ms.
